
(set-logic HORN)
(declare-datatypes ((Tok_0 0)) (((C_52) (D_6) (X_87739) (Y_2848) (Plus_137) (Mul_12))))
(declare-fun diseqTok_0 (Tok_0 Tok_0) Bool)
(declare-fun isC_27 (Tok_0) Bool)
(declare-fun isD_2 (Tok_0) Bool)
(declare-fun isX_64 (Tok_0) Bool)
(declare-fun isY_14 (Tok_0) Bool)
(declare-fun isPlus_14 (Tok_0) Bool)
(declare-fun isMul_0 (Tok_0) Bool)
(assert (isC_27 C_52))
(assert (isD_2 D_6))
(assert (isX_64 X_87739))
(assert (isY_14 Y_2848))
(assert (isPlus_14 Plus_137))
(assert (isMul_0 Mul_12))
(assert (diseqTok_0 C_52 D_6))
(assert (diseqTok_0 C_52 X_87739))
(assert (diseqTok_0 C_52 Y_2848))
(assert (diseqTok_0 C_52 Plus_137))
(assert (diseqTok_0 C_52 Mul_12))
(assert (diseqTok_0 D_6 C_52))
(assert (diseqTok_0 X_87739 C_52))
(assert (diseqTok_0 Y_2848 C_52))
(assert (diseqTok_0 Plus_137 C_52))
(assert (diseqTok_0 Mul_12 C_52))
(assert (diseqTok_0 D_6 X_87739))
(assert (diseqTok_0 D_6 Y_2848))
(assert (diseqTok_0 D_6 Plus_137))
(assert (diseqTok_0 D_6 Mul_12))
(assert (diseqTok_0 X_87739 D_6))
(assert (diseqTok_0 Y_2848 D_6))
(assert (diseqTok_0 Plus_137 D_6))
(assert (diseqTok_0 Mul_12 D_6))
(assert (diseqTok_0 X_87739 Y_2848))
(assert (diseqTok_0 X_87739 Plus_137))
(assert (diseqTok_0 X_87739 Mul_12))
(assert (diseqTok_0 Y_2848 X_87739))
(assert (diseqTok_0 Plus_137 X_87739))
(assert (diseqTok_0 Mul_12 X_87739))
(assert (diseqTok_0 Y_2848 Plus_137))
(assert (diseqTok_0 Y_2848 Mul_12))
(assert (diseqTok_0 Plus_137 Y_2848))
(assert (diseqTok_0 Mul_12 Y_2848))
(assert (diseqTok_0 Plus_137 Mul_12))
(assert (diseqTok_0 Mul_12 Plus_137))
(declare-datatypes ((list_346 0)) (((nil_391) (cons_341 (head_682 Tok_0) (tail_687 list_346)))))
(declare-fun diseqlist_341 (list_346 list_346) Bool)
(declare-fun head_683 (Tok_0 list_346) Bool)
(declare-fun tail_688 (list_346 list_346) Bool)
(declare-fun isnil_391 (list_346) Bool)
(declare-fun iscons_341 (list_346) Bool)
(assert (forall ((x_87807 Tok_0) (x_87808 list_346))
	(head_683 x_87807 (cons_341 x_87807 x_87808))))
(assert (forall ((x_87807 Tok_0) (x_87808 list_346))
	(tail_688 x_87808 (cons_341 x_87807 x_87808))))
(assert (isnil_391 nil_391))
(assert (forall ((x_87810 Tok_0) (x_87811 list_346))
	(iscons_341 (cons_341 x_87810 x_87811))))
(assert (forall ((x_87812 Tok_0) (x_87813 list_346))
	(diseqlist_341 nil_391 (cons_341 x_87812 x_87813))))
(assert (forall ((x_87814 Tok_0) (x_87815 list_346))
	(diseqlist_341 (cons_341 x_87814 x_87815) nil_391)))
(assert (forall ((x_87816 Tok_0) (x_87817 list_346) (x_87818 Tok_0) (x_87819 list_346))
	(=> (diseqTok_0 x_87816 x_87818) (diseqlist_341 (cons_341 x_87816 x_87817) (cons_341 x_87818 x_87819)))))
(assert (forall ((x_87816 Tok_0) (x_87817 list_346) (x_87818 Tok_0) (x_87819 list_346))
	(=> (diseqlist_341 x_87817 x_87819) (diseqlist_341 (cons_341 x_87816 x_87817) (cons_341 x_87818 x_87819)))))
(declare-datatypes ((E_51 0)) (((x_87740 (proj_200 E_51) (proj_201 E_51)) (x_87741 (proj_202 E_51) (proj_203 E_51)) (EX_0) (EY_0))))
(declare-fun diseqE_5 (E_51 E_51) Bool)
(declare-fun proj_204 (E_51 E_51) Bool)
(declare-fun proj_205 (E_51 E_51) Bool)
(declare-fun proj_206 (E_51 E_51) Bool)
(declare-fun proj_207 (E_51 E_51) Bool)
(declare-fun isx_65 (E_51) Bool)
(declare-fun isx_66 (E_51) Bool)
(declare-fun isEX_0 (E_51) Bool)
(declare-fun isEY_0 (E_51) Bool)
(assert (forall ((x_87820 E_51) (x_87821 E_51))
	(proj_204 x_87820 (x_87740 x_87820 x_87821))))
(assert (forall ((x_87820 E_51) (x_87821 E_51))
	(proj_205 x_87821 (x_87740 x_87820 x_87821))))
(assert (forall ((x_87823 E_51) (x_87824 E_51))
	(proj_206 x_87823 (x_87741 x_87823 x_87824))))
(assert (forall ((x_87823 E_51) (x_87824 E_51))
	(proj_207 x_87824 (x_87741 x_87823 x_87824))))
(assert (forall ((x_87828 E_51) (x_87829 E_51))
	(isx_65 (x_87740 x_87828 x_87829))))
(assert (forall ((x_87830 E_51) (x_87831 E_51))
	(isx_66 (x_87741 x_87830 x_87831))))
(assert (isEX_0 EX_0))
(assert (isEY_0 EY_0))
(assert (forall ((x_87832 E_51) (x_87833 E_51) (x_87834 E_51) (x_87835 E_51))
	(diseqE_5 (x_87740 x_87832 x_87833) (x_87741 x_87834 x_87835))))
(assert (forall ((x_87836 E_51) (x_87837 E_51))
	(diseqE_5 (x_87740 x_87836 x_87837) EX_0)))
(assert (forall ((x_87838 E_51) (x_87839 E_51))
	(diseqE_5 (x_87740 x_87838 x_87839) EY_0)))
(assert (forall ((x_87840 E_51) (x_87841 E_51) (x_87842 E_51) (x_87843 E_51))
	(diseqE_5 (x_87741 x_87840 x_87841) (x_87740 x_87842 x_87843))))
(assert (forall ((x_87844 E_51) (x_87845 E_51))
	(diseqE_5 EX_0 (x_87740 x_87844 x_87845))))
(assert (forall ((x_87846 E_51) (x_87847 E_51))
	(diseqE_5 EY_0 (x_87740 x_87846 x_87847))))
(assert (forall ((x_87848 E_51) (x_87849 E_51))
	(diseqE_5 (x_87741 x_87848 x_87849) EX_0)))
(assert (forall ((x_87850 E_51) (x_87851 E_51))
	(diseqE_5 (x_87741 x_87850 x_87851) EY_0)))
(assert (forall ((x_87852 E_51) (x_87853 E_51))
	(diseqE_5 EX_0 (x_87741 x_87852 x_87853))))
(assert (forall ((x_87854 E_51) (x_87855 E_51))
	(diseqE_5 EY_0 (x_87741 x_87854 x_87855))))
(assert (diseqE_5 EX_0 EY_0))
(assert (diseqE_5 EY_0 EX_0))
(assert (forall ((x_87856 E_51) (x_87857 E_51) (x_87858 E_51) (x_87859 E_51))
	(=> (diseqE_5 x_87856 x_87858) (diseqE_5 (x_87740 x_87856 x_87857) (x_87740 x_87858 x_87859)))))
(assert (forall ((x_87856 E_51) (x_87857 E_51) (x_87858 E_51) (x_87859 E_51))
	(=> (diseqE_5 x_87857 x_87859) (diseqE_5 (x_87740 x_87856 x_87857) (x_87740 x_87858 x_87859)))))
(assert (forall ((x_87860 E_51) (x_87861 E_51) (x_87862 E_51) (x_87863 E_51))
	(=> (diseqE_5 x_87860 x_87862) (diseqE_5 (x_87741 x_87860 x_87861) (x_87741 x_87862 x_87863)))))
(assert (forall ((x_87860 E_51) (x_87861 E_51) (x_87862 E_51) (x_87863 E_51))
	(=> (diseqE_5 x_87861 x_87863) (diseqE_5 (x_87741 x_87860 x_87861) (x_87741 x_87862 x_87863)))))
(declare-fun assoc_0 (E_51 E_51) Bool)
(assert (forall ((x_87755 E_51) (x_87756 E_51) (a_94 E_51) (b_93 E_51))
	(=> (and (assoc_0 x_87755 a_94) (assoc_0 x_87756 b_93)) (assoc_0 (x_87741 x_87755 x_87756) (x_87741 a_94 b_93)))))
(assert (forall ((x_87757 E_51) (a_95 E_51) (b_94 E_51) (c_53 E_51))
	(=> (assoc_0 x_87757 (x_87740 a_95 (x_87740 b_94 c_53))) (assoc_0 x_87757 (x_87740 (x_87740 a_95 b_94) c_53)))))
(assert (forall ((x_87760 E_51) (x_87761 E_51) (x_87743 E_51) (c_53 E_51))
	(=> (and (assoc_0 x_87760 EX_0) (assoc_0 x_87761 c_53)) (assoc_0 (x_87740 x_87760 x_87761) (x_87740 EX_0 c_53)))))
(assert (forall ((x_87763 E_51) (x_87764 E_51) (x_87743 E_51) (c_53 E_51))
	(=> (and (assoc_0 x_87763 EY_0) (assoc_0 x_87764 c_53)) (assoc_0 (x_87740 x_87763 x_87764) (x_87740 EY_0 c_53)))))
(assert (forall ((x_87766 E_51) (x_87767 E_51) (x_87743 E_51) (x_87750 E_51) (x_87751 E_51) (c_53 E_51))
	(=> (and (assoc_0 x_87766 (x_87741 x_87750 x_87751)) (assoc_0 x_87767 c_53)) (assoc_0 (x_87740 x_87766 x_87767) (x_87740 (x_87741 x_87750 x_87751) c_53)))))
(assert (forall ((x_87744 E_51))
	(assoc_0 EX_0 EX_0)))
(assert (forall ((x_87744 E_51))
	(assoc_0 EY_0 EY_0)))
(declare-fun x_87745 (list_346 list_346 list_346) Bool)
(assert (forall ((x_87771 list_346) (z_2502 Tok_0) (xs_831 list_346) (y_2850 list_346))
	(=> (x_87745 x_87771 xs_831 y_2850) (x_87745 (cons_341 z_2502 x_87771) (cons_341 z_2502 xs_831) y_2850))))
(assert (forall ((x_87772 list_346))
	(x_87745 x_87772 nil_391 x_87772)))
(declare-fun linTerm_0 (list_346 E_51) Bool)
(declare-fun lin_0 (list_346 E_51) Bool)
(assert (forall ((x_87773 list_346) (x_87774 list_346) (x_87775 list_346) (a_96 E_51) (b_95 E_51))
	(=> (and (lin_0 x_87774 (x_87740 a_96 b_95)) (x_87745 x_87775 x_87774 (cons_341 D_6 nil_391)) (x_87745 x_87773 (cons_341 C_52 nil_391) x_87775)) (linTerm_0 x_87773 (x_87741 a_96 b_95)))))
(assert (forall ((x_87777 list_346) (x_87748 E_51))
	(=> (lin_0 x_87777 EX_0) (linTerm_0 x_87777 EX_0))))
(assert (forall ((x_87779 list_346) (x_87748 E_51))
	(=> (lin_0 x_87779 EY_0) (linTerm_0 x_87779 EY_0))))
(assert (forall ((x_87781 list_346) (x_87748 E_51) (x_87752 E_51) (x_87753 E_51))
	(=> (lin_0 x_87781 (x_87740 x_87752 x_87753)) (linTerm_0 x_87781 (x_87740 x_87752 x_87753)))))
(assert (lin_0 (cons_341 Y_2848 nil_391) EY_0))
(assert (lin_0 (cons_341 X_87739 nil_391) EX_0))
(assert (forall ((x_87785 list_346) (x_87786 list_346) (x_87787 list_346) (x_87788 list_346) (a_97 E_51) (b_96 E_51))
	(=> (and (lin_0 x_87786 a_97) (lin_0 x_87787 b_96) (x_87745 x_87788 (cons_341 Mul_12 nil_391) x_87787) (x_87745 x_87785 x_87786 x_87788)) (lin_0 x_87785 (x_87741 a_97 b_96)))))
(assert (forall ((x_87790 list_346) (x_87791 list_346) (x_87792 list_346) (x_87793 list_346) (a_98 E_51) (b_97 E_51))
	(=> (and (linTerm_0 x_87791 a_98) (linTerm_0 x_87792 b_97) (x_87745 x_87793 (cons_341 Plus_137 nil_391) x_87792) (x_87745 x_87790 x_87791 x_87793)) (lin_0 x_87790 (x_87740 a_98 b_97)))))
(assert (forall ((x_87797 list_346) (x_87795 E_51) (x_87796 E_51) (u_19 E_51) (v_19 E_51))
	(=> (and true (diseqE_5 x_87795 x_87796) (lin_0 x_87797 u_19) (lin_0 x_87797 v_19) (assoc_0 x_87795 u_19) (assoc_0 x_87796 v_19)) false)))
(check-sat)
